Minimize
 Cost:   d_Fooo + d_Blahh 
Subject To
TOTALPCSIZEMAX: d_Fooo + d_Blahh  <= 2
TOTALPCSIZEMIN: d_Fooo + d_Blahh  >= 0
CANDIDATE.Fooo:  d_Fooo = 0
CANDIDATE.Blahh:  d_Blahh = 1
Binaries
d_Fooo
d_Blahh
End
